data;

#set M := 1 2 3 4 5 ;
#set F := 1 2 ;
#set I := 1 2 3 4 ;

param D :=
1	12310
2	13870
3	2500
4	11120
5   10100;

param CapMin:
	1	2:=
1	200	1200
2	1520	2970
3	803	1450
4	212	3010
;


param CapMax:
	1	2:=
1	1200	2500
2	2970	4300
3	1450	2920
4	3010	5500
;

param Costo:
	1	2:=
1	2.5	4.1
2	5.0	6.7
3	3.7	5.1
4	6.1	7.9
;

param P:= 82300;